5 5
3 61 4 68 1 68 0 29 2 62
1 60 3 84 4 41 0 87 2 82
3 89 1 65 0 64 4 79 2 63
3 98 0 48 2 20 1 37 4 64
3 91 2 86 1 5 4 34 0 39
-1
0 2 4 5
0 2 5
0 3 5
0 2 3 5
0 4 5
-2
140 301 343
224 499
245 545
218 219 302
317 342

595 8
3 12 8 16 24
5 2 11 22 18
4 21 14 17 9
0 10 6 20 15
1 7 13 23 19
